c Random generated cnf formula, satisfiable: false
p cnf 10 50
-1 -3 -2 0
-3 -10 -5 0
4 -3 1 0
-6 -5 -9 0
8 4 -9 0
-4 -6 8 0
-5 7 10 0
-9 -7 -2 0
4 -6 -3 0
-6 5 10 0
4 6 -7 0
-3 -9 -10 0
-8 -2 1 0
-8 7 -2 0
-5 7 -8 0
4 5 -1 0
10 -2 7 0
7 -9 4 0
-2 9 5 0
-3 10 7 0
-10 4 -5 0
3 2 -10 0
-5 3 9 0
1 9 -2 0
-4 3 -7 0
-1 -9 -7 0
-9 2 -1 0
-1 6 5 0
-9 -6 -7 0
7 4 -8 0
-9 5 -2 0
-10 -1 -5 0
-7 2 -4 0
-2 -1 -10 0
-5 9 -4 0
-4 10 1 0
7 -1 5 0
-10 -2 -8 0
-3 -4 8 0
-9 -3 1 0
5 10 1 0
5 -8 -3 0
10 -1 -6 0
8 -5 1 0
1 -2 7 0
5 2 -8 0
-6 1 5 0
9 -1 -4 0
6 -9 -7 0
-1 -6 -7 0
